config:eval_tsp="2022-12-07 08:24:52"
config:arch=arch5
config:num_train_worker=6
config:num_sample_worker=2
config:sample_type=khop2
config:root_path=/nvme/samgraph/
config:dataset=papers100M-undir
config:pipeline=False
config:cache_policy=coll_cache_asymm_link
config:cache_percentage=0.2
config:num_epoch=4
config:batch_size=8000
config:num_hidden=256
config:max_sampling_jobs=1
config:max_copying_jobs=1
config:barriered_epoch=1
config:presample_epoch=2
config:omp_thread_num=6
config:unsupervised=False
config:amp=True
config:rolling=0
config:fanout=[25, 10]
config:lr=0.003
config:dropout=0.5
config:single_gpu=False
config:max_num_step=100000
config:validate_configs=False
config:report_acc=0
config:dataset_path=/nvme/samgraph/papers100M-undir
config:torch_thread_num=8
config:train_workers=['cuda:0', 'cuda:1', 'cuda:2', 'cuda:3', 'cuda:4', 'cuda:5']
config:sample_workers=['cuda:6', 'cuda:7']
config:num_fanout=2
config:num_layer=2
config:_run_mode=RunMode.FGNN
config:_log_level=warn
config:_profile_level=3
config:_empty_feat=0
config:_arch=5
config:_sample_type=5
config:_cache_policy=13
test_result:init:input_scale_factor=1.1
Set parameter WLSAccessID
Set parameter WLSSecret
Set parameter LicenseID
Set parameter TimeLimit to value 200
Set parameter MIPGap to value 0.05
Set parameter GomoryPasses to value 0
Set parameter Aggregate to value 0
Set parameter LogFile to value "cppsolver.log"
Set parameter Threads to value 12
Academic license - for non-commercial use only - registered to xiaoniu.sxn@sjtu.edu.cn
Gurobi Optimizer version 9.5.2 build v9.5.2rc0 (linux64)
Thread count: 48 physical cores, 96 logical processors, using up to 12 threads
Academic license - for non-commercial use only - registered to xiaoniu.sxn@sjtu.edu.cn
Optimize a model with 115974 rows, 25432 columns and 286830 nonzeros
Model fingerprint: 0x4dcb5c8b
Variable types: 7 continuous, 25425 integer (25425 binary)
Coefficient statistics:
  Matrix range     [3e-04, 2e+03]
  Objective range  [1e+00, 1e+00]
  Bounds range     [1e+00, 1e+00]
  RHS range        [1e+00, 7e+02]
Found heuristic solution: objective 2.000000e+09
Presolve removed 91535 rows and 0 columns
Presolve time: 0.33s
Presolved: 24439 rows, 25432 columns, 98680 nonzeros
Found heuristic solution: objective 27122.718989
Variable types: 7 continuous, 25425 integer (25425 binary)

Root simplex log...

Iteration    Objective       Primal Inf.    Dual Inf.      Time
   25850    6.6136968e+02   1.996962e+04   0.000000e+00      5s
   42809    6.8636034e+02   0.000000e+00   0.000000e+00      9s

Root relaxation: objective 6.863603e+02, 42809 iterations, 8.46 seconds (8.79 work units)
Total elapsed time = 10.90s

    Nodes    |    Current Node    |     Objective Bounds      |     Work
 Expl Unexpl |  Obj  Depth IntInf | Incumbent    BestBd   Gap | It/Node Time

     0     0  686.36034    0 18395 27122.7190  686.36034  97.5%     -   11s
H    0     0                     738.5325938  686.36034  7.06%     -   11s
H    0     0                     731.7937644  686.36034  6.21%     -   19s
     0     0  686.36706    0 18405  731.79376  686.36706  6.21%     -   20s
H    0     0                     728.6037919  686.36706  5.80%     -   21s
     0     0  686.36706    0 18405  728.60379  686.36706  5.80%     -   22s
H    0     0                     728.0537966  686.36706  5.73%     -   31s
     0     0  686.46336    0 18340  728.05380  686.46336  5.71%     -   32s
H    0     0                     722.5245671  686.46336  4.99%     -   33s

Cutting planes:
  MIR: 3
  Zero half: 763

Explored 1 nodes (54677 simplex iterations) in 33.05 seconds (24.09 work units)
Thread count was 12 (of 96 available processors)

Solution count 7: 722.525 728.054 728.604 ... 2e+09

Optimal solution found (tolerance 5.00e-02)
Best objective 7.225245670851e+02, best bound 6.864633592348e+02, gap 4.9910%
coll_cache:optimal_local_rate=0.612032,0.446382,0.680047,0.526372,0.658782,0.537068,
coll_cache:optimal_remote_rate=0.386119,0.551769,0.318104,0.471778,0.339368,0.461083,
coll_cache:optimal_cpu_rate=0.00184949,0.00184949,0.00184949,0.00184949,0.00184949,0.00184949,
z=722.525
test_result:init:feat_nbytes=56862697472
test_result:init:cache_nbytes=11362463744
test_result:init:feat_nbytes=56862697472
test_result:init:cache_nbytes=10192458240
test_result:init:feat_nbytes=56862697472
test_result:init:cache_nbytes=11360783872
test_result:init:feat_nbytes=56862697472
test_result:init:cache_nbytes=10251433472
test_result:init:feat_nbytes=56862697472
test_result:init:cache_nbytes=10291755520
test_result:init:feat_nbytes=56862697472
test_result:init:cache_nbytes=11338932736
test_result:init:cache_nbytes=0
test_result:init:cache_nbytes=0
test_result:init:cache_nbytes=0
test_result:init:cache_nbytes=0
test_result:init:cache_nbytes=0
test_result:init:cache_nbytes=0
[Train  Worker 5/6] Started with PID 75564(Tesla V100-SXM2-32GB)
[Train  Worker 5] run train for 4 epochs with 156 steps
[Train  Worker 5] Avg Epoch Time 0.4538 | Train Total Time(Profiler) 0.2761 | Copy Time 0.1749
[Train  Worker 3/6] Started with PID 75558(Tesla V100-SXM2-32GB)
[Train  Worker 3] run train for 4 epochs with 156 steps
[Train  Worker 3] Avg Epoch Time 0.4539 | Train Total Time(Profiler) 0.2341 | Copy Time 0.2170
[Train  Worker 1/6] Started with PID 75551(Tesla V100-SXM2-32GB)
[Train  Worker 1] run train for 4 epochs with 156 steps
[Train  Worker 1] Avg Epoch Time 0.4538 | Train Total Time(Profiler) 0.2332 | Copy Time 0.2178
[Train  Worker 4/6] Started with PID 75561(Tesla V100-SXM2-32GB)
[Train  Worker 4] run train for 4 epochs with 156 steps
[Train  Worker 4] Avg Epoch Time 0.4538 | Train Total Time(Profiler) 0.2384 | Copy Time 0.2124
[Train  Worker 0/6] Started with PID 75549(Tesla V100-SXM2-32GB)
[Train  Worker 0] run train for 4 epochs with 156 steps
Epoch 00000 | Epoch Time 1.9137 | Total Train Time(Profiler) 1.6965 | Copy Time 0.2137
Epoch 00001 | Epoch Time 0.4555 | Total Train Time(Profiler) 0.2747 | Copy Time 0.1778
Epoch 00002 | Epoch Time 0.4502 | Total Train Time(Profiler) 0.2701 | Copy Time 0.1772
Epoch 00003 | Epoch Time 0.4558 | Total Train Time(Profiler) 0.2756 | Copy Time 0.1776
[Train  Worker 0] Avg Epoch Time 0.4538 | Train Total Time(Profiler) 0.2735 | Copy Time 0.1775
[Train  Worker 2/6] Started with PID 75555(Tesla V100-SXM2-32GB)
[Train  Worker 2] run train for 4 epochs with 156 steps
[Train  Worker 2] Avg Epoch Time 0.4539 | Train Total Time(Profiler) 0.2372 | Copy Time 0.2140
    [Step(average) Profiler Level 1 E3 S77]
        L1  sample           0.006116 | send           0.001483
        L1  recv             0.000000 | copy           0.000000 | convert time 0.000000 | train  0.000000
        L1  feature nbytes 0.00 Bytes | label nbytes 0.00 Bytes
        L1  id nbytes      0.00 Bytes | graph nbytes 0.00 Bytes
        L1  miss nbytes    0.00 Bytes | remote nbytes 0.00 Bytes
        L1  num nodes         1099506 | num samples     1708649
    [Step(average) Profiler Level 2 E3 S77]
        L2  shuffle     0.000489 | core sample  0.002132 | id remap        0.003379
        L2  graph copy  0.000000 | id copy      0.000000 | cache feat copy 0.000000
        L2  last layer sample time 0.000364 | size 72308.931624
    [Step(average) Profiler Level 3 E3 S77]
        L3  khop sample coo  0.001795 | khop sort coo      0.000000 | khop count edge     0.000044 | khop compact edge 0.000249
        L3  walk sample coo  0.000000 | walk topk total    0.000000 | walk topk step1     0.000000 | walk topk step2   0.000000
        L3  walk topk step3  0.000000 | walk topk step4    0.000000 | walk topk step5     0.000000
        L3  walk topk step6  0.000000 | walk topk step7    0.000000
        L3  remap unique     0.000000 | remap populate     0.002758 | remap mapnode       0.000000 | remap mapedge     0.000620
        L3  cache get_index  0.000000 | cache copy_index   0.000000 | cache extract_miss  0.000000
        L3  cache copy_miss  0.000000 | cache combine_miss 0.000000 | cache combine cache 0.000000 | cache combine remote 0.000000
        L3  label extract  0.000000
[Sample Worker 1/2] Started with PID 75547(Tesla V100-SXM2-32GB)
[Sample Worker 1] run sample for 4 epochs with 78 steps
[Sample Worker 1] Avg Sample Total Time 0.5914 | Sampler Total Time(Profiler) 0.5905
    [Init Profiler Level 1]
        L1  init     7.4265 | sampler init    16.1772 | trainer init 0.0000
    [Init Profiler Level 2]
        L2  load ds        10.1944 | init queue           5.4352
        L2  presample       5.4689 | build interal ds     2.5015
        L2  build cache     0.0000
    [Init Profiler Level 3]
        L3  load dataset: mmap     7.4218 | copy         2.7726
        L3  dist queue: alloc      0.0018 | pin          5.4334 | push     0.0000
        L3  presample: init        0.3876
        L3  presample: sample      1.8019 | copy         0.1140
        L3  presample: count       2.5314 | sort         0.2042
        L3  presample: reset       0.0006 | get rank     0.0241
        L3  internal: cuda ctx     2.2151 | cuda stream     0.2794
[Sample Worker 0/2] Started with PID 75546(Tesla V100-SXM2-32GB)
[Sample Worker 0] run sample for 4 epochs with 78 steps
[Sample Worker 0] Avg Sample Total Time 0.5937 | Sampler Total Time(Profiler) 0.5927
test_result:sample_time=0.4770
test_result:get_cache_miss_index_time=0.0000
test_result:enqueue_samples_time=0.1157
test_result:epoch_time:sample_total=0.5937
[CUDA] cuda0: usage: 17.04 GB
[SAM] cuda0 data alloc        : 0.00 Bytes
[SAM] cuda0 workspace         : 1.23 GB
[SAM] cuda0 workspace reserve : 620.94 MB
[SAM] cuda0 total             : 1.23 GB
    [Step(average) Profiler Level 1 E3 S155]
        L1  sample           0.000000 | send           0.000000
        L1  recv             0.002591 | copy           0.007779 | convert time 0.000424 | train  0.009144
        L1  feature nbytes  536.87 MB | label nbytes   62.50 KB
        L1  id nbytes      0.00 Bytes | graph nbytes 0.00 Bytes
        L1  miss nbytes       6.47 MB | remote nbytes  223.57 MB
        L1  num nodes               0 | num samples           0
    [Step(average) Profiler Level 2 E3 S155]
        L2  shuffle     0.000000 | core sample  0.000000 | id remap        0.000000
        L2  graph copy  0.000004 | id copy      0.000000 | cache feat copy 0.005183
        L2  last layer sample time 0.000000 | size 0.000000
    [Step(average) Profiler Level 3 E3 S155]
        L3  khop sample coo  0.000000 | khop sort coo      0.000000 | khop count edge     0.000000 | khop compact edge 0.000000
        L3  walk sample coo  0.000000 | walk topk total    0.000000 | walk topk step1     0.000000 | walk topk step2   0.000000
        L3  walk topk step3  0.000000 | walk topk step4    0.000000 | walk topk step5     0.000000
        L3  walk topk step6  0.000000 | walk topk step7    0.000000
        L3  remap unique     0.000000 | remap populate     0.000000 | remap mapnode       0.000000 | remap mapedge     0.000000
        L3  cache get_index  0.000808 | cache copy_index   0.000000 | cache extract_miss  0.000000
        L3  cache copy_miss  0.000000 | cache combine_miss 0.002018 | cache combine cache 0.001178 | cache combine remote 0.002723
        L3  label extract  0.000462
    [Init Profiler Level 1]
        L1  init     7.4265 | sampler init     0.0000 | trainer init 99.7683
    [Init Profiler Level 2]
        L2  load ds         7.4218 | init queue           5.3901
        L2  presample       0.0000 | build interal ds     2.1436
        L2  build cache    92.2278
    [Init Profiler Level 3]
        L3  load dataset: mmap     7.4218 | copy         0.0000
        L3  dist queue: alloc      0.0018 | pin          5.3883 | push     0.0000
        L3  presample: init        0.0000
        L3  presample: sample      0.0000 | copy         0.0000
        L3  presample: count       0.0000 | sort         0.0000
        L3  presample: reset       0.0000 | get rank     0.0000
        L3  internal: cuda ctx     2.1435 | cuda stream     0.0000
|===========================================================================|
|                  PyTorch CUDA memory summary, device ID 0                 |
|---------------------------------------------------------------------------|
|            CUDA OOMs: 0            |        cudaMalloc retries: 0         |
|===========================================================================|
|        Metric         | Cur Usage  | Peak Usage | Tot Alloc  | Tot Freed  |
|---------------------------------------------------------------------------|
| Allocated memory      |   22839 KB |  403816 KB |  145087 MB |  145065 MB |
|       from large pool |   18170 KB |  400430 KB |  144009 MB |  143992 MB |
|       from small pool |    4669 KB |    7094 KB |    1077 MB |    1073 MB |
|---------------------------------------------------------------------------|
| Active memory         |   22839 KB |  403816 KB |  145087 MB |  145065 MB |
|       from large pool |   18170 KB |  400430 KB |  144009 MB |  143992 MB |
|       from small pool |    4669 KB |    7094 KB |    1077 MB |    1073 MB |
|---------------------------------------------------------------------------|
| GPU reserved memory   |  581632 KB |  581632 KB |  581632 KB |       0 B  |
|       from large pool |  571392 KB |  571392 KB |  571392 KB |       0 B  |
|       from small pool |   10240 KB |   10240 KB |   10240 KB |       0 B  |
|---------------------------------------------------------------------------|
| Non-releasable memory |   24264 KB |  374072 KB |  168513 MB |  168489 MB |
|       from large pool |   22790 KB |  373017 KB |  167282 MB |  167260 MB |
|       from small pool |    1474 KB |    3606 KB |    1231 MB |    1229 MB |
|---------------------------------------------------------------------------|
| Allocations           |      38    |      51    |   11583    |   11545    |
|       from large pool |       3    |      14    |    4576    |    4573    |
|       from small pool |      35    |      39    |    7007    |    6972    |
|---------------------------------------------------------------------------|
| Active allocs         |      39    |      51    |   11583    |   11544    |
|       from large pool |       3    |      14    |    4576    |    4573    |
|       from small pool |      36    |      39    |    7007    |    6971    |
|---------------------------------------------------------------------------|
| GPU reserved segments |      14    |      14    |      14    |       0    |
|       from large pool |       9    |       9    |       9    |       0    |
|       from small pool |       5    |       5    |       5    |       0    |
|---------------------------------------------------------------------------|
| Non-releasable allocs |      14    |      24    |    5359    |    5345    |
|       from large pool |       4    |      12    |    2674    |    2670    |
|       from small pool |      10    |      16    |    2685    |    2675    |
|---------------------------------------------------------------------------|
| Oversize allocations  |       0    |       0    |       0    |       0    |
|---------------------------------------------------------------------------|
| Oversize GPU segments |       0    |       0    |       0    |       0    |
|===========================================================================|

test_result:epoch_time:copy_time=0.1775
test_result:convert_time=0.0110
test_result:train_time=0.2624
test_result:epoch_time:train_total=0.2735
test_result:cache_percentage=0.2000
test_result:cache_hit_rate=1.0000
test_result:run_time=5.6925
